
******************************************************************************
This program contains Ipopt, a library for large-scale nonlinear optimization.
 Ipopt is released as open source code under the Eclipse Public License (EPL).
         For more information visit http://projects.coin-or.org/Ipopt
******************************************************************************

This is Ipopt version 3.12.6, running with linear solver ma57.

Number of nonzeros in equality constraint Jacobian...:    10000
Number of nonzeros in inequality constraint Jacobian.:      198
Number of nonzeros in Lagrangian Hessian.............:     5050

Total number of variables............................:      100
                     variables with only lower bounds:        0
                variables with lower and upper bounds:        0
                     variables with only upper bounds:        0
Total number of equality constraints.................:      100
Total number of inequality constraints...............:       99
        inequality constraints with only lower bounds:       99
   inequality constraints with lower and upper bounds:        0
        inequality constraints with only upper bounds:        0

iter    objective    inf_pr   inf_du lg(mu)  ||d||  lg(rg) alpha_du alpha_pr  ls
   0  0.0000000e+00 3.00e+00 1.00e+00  -1.0 0.00e+00    -  0.00e+00 0.00e+00   0
   1  0.0000000e+00 2.79e+00 1.02e+01  -1.0 2.48e-01    -  1.59e-01 4.00e-02h  1
   2  0.0000000e+00 2.53e+00 8.04e+01  -1.0 3.06e-01    -  6.83e-02 6.55e-02h  1
   3  0.0000000e+00 2.47e+00 8.60e+01  -1.0 1.50e-01    -  2.66e-01 2.02e-02h  1
   4  0.0000000e+00 2.43e+00 1.50e+02  -1.0 5.67e-01    -  2.75e-02 1.55e-02h  1
   5  0.0000000e+00 2.25e+00 5.19e+03  -1.0 1.31e-01   4.0 1.32e-01 7.10e-02h  1
   6  0.0000000e+00 1.70e+00 7.99e+03  -1.0 5.71e-02   4.4 4.76e-01 2.29e-01f  1
   7  0.0000000e+00 7.23e-01 3.71e+04  -1.0 4.38e-02   3.9 5.17e-01 5.75e-01h  1
   8  0.0000000e+00 7.02e-01 3.61e+04  -1.0 4.73e-02   4.4 2.71e-01 2.92e-02h  1
   9  0.0000000e+00 6.53e-01 3.37e+04  -1.0 2.00e-01   3.9 4.82e-02 7.08e-02h  1
iter    objective    inf_pr   inf_du lg(mu)  ||d||  lg(rg) alpha_du alpha_pr  ls
  10  0.0000000e+00 6.43e-01 3.32e+04  -1.0 1.40e-01   4.3 1.99e-01 1.57e-02h  1
  11  0.0000000e+00 6.14e-01 3.19e+04  -1.0 3.92e-02   4.7 9.14e-02 4.46e-02h  1
  12  0.0000000e+00 5.61e-01 3.01e+04  -1.0 3.29e-02   5.2 4.36e-02 8.92e-02f  1
  13  0.0000000e+00 3.65e-01 1.87e+04  -1.0 1.36e-02   5.6 1.00e+00 3.85e-01f  1
  14  0.0000000e+00 3.30e-01 1.75e+04  -1.0 6.60e-02   5.1 3.54e-01 9.88e-02h  1
  15  0.0000000e+00 8.26e-02 1.17e+03  -1.0 4.17e-03   4.6 5.23e-01 1.00e+00f  1
  16  0.0000000e+00 2.06e-02 3.08e+02  -1.0 3.09e-03   4.2 1.00e+00 1.00e+00h  1
  17  0.0000000e+00 1.38e-02 7.43e+02  -1.0 5.62e-02    -  2.77e-01 3.63e-01h  1
  18  0.0000000e+00 1.06e-02 2.90e+02  -1.0 1.08e-01    -  1.32e-01 2.50e-01h  1
  19  0.0000000e+00 2.65e-03 9.41e+03  -1.0 5.39e-03   4.6 1.00e+00 1.00e+00f  1
iter    objective    inf_pr   inf_du lg(mu)  ||d||  lg(rg) alpha_du alpha_pr  ls
  20  0.0000000e+00 6.68e-04 6.76e+03  -1.0 4.13e-04   5.9 1.00e+00 1.00e+00h  1
  21  0.0000000e+00 1.66e-04 5.00e+04  -1.0 8.73e-04   5.4 1.00e+00 1.00e+00h  1
  22  0.0000000e+00 6.14e-05 7.24e+03  -1.0 8.40e-05   6.8 1.00e+00 1.00e+00h  1
  23  0.0000000e+00 1.65e-05 2.24e+03  -1.0 9.02e-05   6.3 1.00e+00 1.00e+00h  1
  24  0.0000000e+00 1.23e-05 1.89e+03  -1.0 3.58e-05   7.6 1.00e+00 1.00e+00h  1
  25r 0.0000000e+00 1.23e-05 6.13e+01  -1.0 0.00e+00   7.2 0.00e+00 4.77e-07R 22
  26r 0.0000000e+00 3.61e-03 4.95e+02  -1.0 5.80e-02    -  1.00e+00 1.00e+00f  1
  27r 0.0000000e+00 2.08e-03 1.68e+02  -1.0 2.78e-03   4.0 5.74e-01 5.13e-01h  1
  28r 0.0000000e+00 5.99e-04 1.30e+02  -1.0 2.61e-03   3.5 8.06e-01 1.00e+00f  1
  29r 0.0000000e+00 2.47e-04 1.58e+02  -1.0 3.62e-03   3.0 1.00e+00 1.00e+00f  1
iter    objective    inf_pr   inf_du lg(mu)  ||d||  lg(rg) alpha_du alpha_pr  ls
  30r 0.0000000e+00 7.81e-03 5.00e+03  -1.0 7.97e-03   2.6 1.00e+00 1.00e+00f  1
  31r 0.0000000e+00 2.15e-03 1.25e+03  -1.0 8.96e-04   4.8 1.00e+00 1.00e+00h  1
  32r 0.0000000e+00 5.85e-04 2.72e+02  -1.0 5.37e-04   4.3 1.00e+00 1.00e+00h  1
  33r 0.0000000e+00 1.68e-04 9.14e+01  -1.0 6.27e-04   3.8 1.00e+00 1.00e+00h  1
  34r 0.0000000e+00 1.34e-04 1.69e+02  -1.0 1.17e-02    -  1.00e+00 1.00e+00f  1
  35r 0.0000000e+00 7.79e-05 8.25e+01  -1.0 6.24e-04   3.4 1.00e+00 1.00e+00h  1
  36r 0.0000000e+00 7.42e-05 2.37e+02  -1.0 5.73e-03    -  1.00e+00 5.00e-01h  2
  37r 0.0000000e+00 7.15e-05 3.64e+01  -1.0 5.32e-03    -  1.00e+00 1.00e+00f  1
  38r 0.0000000e+00 6.70e-05 2.04e+02  -1.0 1.73e-03    -  1.00e+00 1.00e+00h  1
  39r 0.0000000e+00 6.72e-05 9.96e+01  -1.0 7.05e-04    -  1.00e+00 1.00e+00h  1
iter    objective    inf_pr   inf_du lg(mu)  ||d||  lg(rg) alpha_du alpha_pr  ls
  40r 0.0000000e+00 6.74e-05 2.37e+01  -1.0 2.28e-04    -  1.00e+00 1.00e+00h  1
  41r 0.0000000e+00 6.74e-05 3.68e+00  -1.0 1.11e-04    -  1.00e+00 1.00e+00h  1
  42r 0.0000000e+00 2.11e-05 3.35e+01  -1.7 1.06e-02    -  1.00e+00 1.00e+00f  1
  43r 0.0000000e+00 1.20e-05 6.27e+00  -1.7 5.68e-03    -  1.00e+00 1.00e+00h  1
  44r 0.0000000e+00 1.12e-05 5.69e-01  -1.7 9.24e-04    -  1.00e+00 1.00e+00h  1
  45r 0.0000000e+00 2.96e-06 1.72e+01  -2.5 8.09e-03    -  1.00e+00 1.00e+00f  1
  46r 0.0000000e+00 1.95e-06 3.46e+01  -2.5 6.68e-03    -  1.00e+00 1.00e+00h  1
  47r 0.0000000e+00 1.38e-06 9.29e+00  -2.5 1.40e-03    -  1.00e+00 1.00e+00h  1
  48r 0.0000000e+00 1.36e-06 6.12e+00  -2.5 3.76e-04    -  1.00e+00 1.00e+00h  1
  49r 0.0000000e+00 1.37e-06 2.13e+00  -2.5 1.33e-04    -  1.00e+00 1.00e+00h  1
iter    objective    inf_pr   inf_du lg(mu)  ||d||  lg(rg) alpha_du alpha_pr  ls
  50r 0.0000000e+00 1.37e-06 8.55e-01  -2.5 9.49e-05    -  1.00e+00 1.00e+00h  1
  51r 0.0000000e+00 1.37e-06 8.37e-02  -2.5 3.18e-05    -  1.00e+00 1.00e+00h  1
  52r 0.0000000e+00 8.62e-07 6.05e+01  -3.8 7.03e-03    -  9.93e-01 1.00e+00f  1
  53r 0.0000000e+00 3.32e-07 4.07e+01  -3.8 6.19e-03    -  1.00e+00 1.00e+00h  1
  54r 0.0000000e+00 1.17e-07 2.52e+01  -3.8 2.02e-03    -  1.00e+00 1.00e+00h  1
  55r 0.0000000e+00 8.71e-08 1.54e+02  -3.8 5.56e-05   2.9 1.00e+00 5.00e-01h  2
  56r 0.0000000e+00 3.16e-07 1.94e+01  -3.8 6.07e-04    -  1.00e+00 1.00e+00h  1
  57r 0.0000000e+00 1.17e-07 1.96e+01  -3.8 3.68e-05   2.4 1.00e+00 1.00e+00h  1
  58r 0.0000000e+00 5.43e-08 3.29e+00  -3.8 1.32e-05   2.8 1.00e+00 1.00e+00h  1
  59r 0.0000000e+00 5.49e-08 5.13e+01  -3.8 4.03e-05   2.4 1.00e+00 5.00e-01h  2
iter    objective    inf_pr   inf_du lg(mu)  ||d||  lg(rg) alpha_du alpha_pr  ls
  60r 0.0000000e+00 5.42e-08 6.86e+01  -3.8 5.66e-05   1.9 1.00e+00 2.50e-01h  3
  61r 0.0000000e+00 6.03e-08 4.31e+00  -3.8 3.70e-05   1.4 1.00e+00 1.00e+00h  1
  62r 0.0000000e+00 5.49e-08 1.14e+00  -3.8 3.38e-05   0.9 1.00e+00 1.00e+00h  1
  63r 0.0000000e+00 5.59e-08 3.23e+01  -3.8 6.73e-05   1.4 1.00e+00 5.00e-01h  2
  64r 0.0000000e+00 3.25e-07 2.94e+01  -3.8 4.00e-03    -  1.00e+00 2.50e-01h  3
  65r 0.0000000e+00 2.93e-07 8.43e+01  -3.8 6.01e-04    -  1.00e+00 1.25e-01h  4
  66r 0.0000000e+00 2.92e-07 7.35e+01  -3.8 4.60e-04    -  1.00e+00 1.95e-03h 10
  67r 0.0000000e+00 2.92e-07 7.35e+01  -3.8 4.58e-04    -  1.00e+00 9.77e-04h 11
  68r 0.0000000e+00 2.92e-07 7.35e+01  -3.8 4.57e-04    -  1.00e+00 3.05e-05h 16
  69r 0.0000000e+00 2.92e-07 7.35e+01  -3.8 4.57e-04    -  1.00e+00 1.53e-05h 17
iter    objective    inf_pr   inf_du lg(mu)  ||d||  lg(rg) alpha_du alpha_pr  ls
  70r 0.0000000e+00 1.09e-07 1.49e+01  -3.8 4.57e-04    -  1.00e+00 1.00e+00h  1
  71r 0.0000000e+00 5.57e-08 3.49e+00  -3.8 5.35e-04    -  1.00e+00 1.00e+00h  1
  72r 0.0000000e+00 5.49e-08 1.41e+02  -3.8 7.21e-04   0.9 1.00e+00 1.25e-01h  4
  73r 0.0000000e+00 5.28e-08 2.05e+02  -3.8 3.37e-04   1.3 1.00e+00 2.50e-01h  3
  74r 0.0000000e+00 1.14e-07 1.47e+01  -3.8 1.14e-04   0.8 1.00e+00 1.00e+00h  1
  75r 0.0000000e+00 5.24e-08 3.63e-01  -3.8 3.36e-04    -  1.00e+00 1.00e+00h  1
  76r 0.0000000e+00 1.22e-07 1.43e+01  -3.8 7.44e-04   0.4 1.00e+00 5.00e-01h  2
  77r 0.0000000e+00 8.03e-08 1.87e+01  -3.8 9.48e-05    -  1.00e+00 5.00e-01h  2
  78r 0.0000000e+00 5.08e-08 3.84e+00  -3.8 1.01e-04    -  1.00e+00 1.00e+00h  1
  79r 0.0000000e+00 5.08e-08 9.03e-02  -3.8 9.80e-05    -  1.00e+00 1.00e+00h  1
iter    objective    inf_pr   inf_du lg(mu)  ||d||  lg(rg) alpha_du alpha_pr  ls
  80r 0.0000000e+00 5.08e-08 7.80e-01  -3.8 1.28e-04    -  1.00e+00 1.00e+00h  1
  81r 0.0000000e+00 5.07e-08 1.78e-02  -3.8 1.88e-05    -  1.00e+00 1.00e+00h  1
  82r 0.0000000e+00 5.07e-08 3.89e-02  -3.8 1.92e-05    -  1.00e+00 1.00e+00h  1
  83r 0.0000000e+00 5.07e-08 1.54e-04  -3.8 1.28e-06    -  1.00e+00 1.00e+00h  1
  84r 0.0000000e+00 1.93e-07 4.32e+01  -5.7 4.93e-03    -  9.66e-01 9.83e-01f  1
  85r 0.0000000e+00 1.24e-07 3.74e+01  -5.7 5.01e-03    -  6.24e-01 5.99e-01f  1
  86r 0.0000000e+00 6.86e-08 4.23e+00  -5.7 4.41e-03    -  1.00e+00 1.00e+00f  1
  87r 0.0000000e+00 1.15e-08 2.25e+02  -5.7 5.17e-04   1.7 9.01e-01 8.95e-01H  1
Cannot recompute multipliers for feasibility problem.  Error in eq_mult_calculator

Number of Iterations....: 87

                                   (scaled)                 (unscaled)
Objective...............:   0.0000000000000000e+00    0.0000000000000000e+00
Dual infeasibility......:   0.0000000000000000e+00    0.0000000000000000e+00
Constraint violation....:   9.2297042923592456e-09    1.1501384714226289e-08
Complementarity.........:   0.0000000000000000e+00    0.0000000000000000e+00
Overall NLP error.......:   9.2297042923592456e-09    1.1501384714226289e-08


Number of objective function evaluations             = 190
Number of objective gradient evaluations             = 27
Number of equality constraint evaluations            = 190
Number of inequality constraint evaluations          = 190
Number of equality constraint Jacobian evaluations   = 89
Number of inequality constraint Jacobian evaluations = 89
Number of Lagrangian Hessian evaluations             = 87
Total CPU secs in IPOPT (w/o function evaluations)   =      0.303
Total CPU secs in NLP function evaluations           =      1.230

EXIT: Optimal Solution Found.
Note: The following floating-point exceptions are signalling: IEEE_UNDERFLOW_FLAG IEEE_DENORMAL

************************ CUTEst statistics ************************


 Package used            :  IPOPT
 Problem                 :  VANDERM3  
 # variables             =             100
 # constraints           =             199
 # objective functions   =        0.2180000E+03
 # objective gradients   =        0.2800000E+02
 # objective Hessians    =        0.8700000E+02
 # Hessian-vector prdct  =        0.0000000E+00
 # constraints functions =        0.2810000E+03
 # constraints gradients =        0.9100000E+02
 # constraints Hessians  =        0.8700000E+02
 Exit code               =               0
 Final f                 =   0.0000000E+00
 Set up time             =            0.06 seconds
 Solve time              =            2.82 seconds


******************************************************************

System Time =       1.3040000200 s.
